NAME: line
TYPE: TSP
COMMENT: 100 dustbins in Moabit Berlin, file shared from BSR
DIMENSION: 86
EDGE_WEIGHT_TYPE: GEO
NODE_COORD_SECTION
0	1	1	0
1	1	2	50
2	1	3	50
3	1	4	50
4	1	5	50
5	1	6	50
6	1	7	50
7	1	8	50
8	1	9	50
9	1	10	50
10	1	11	50
11	1	12	50
12	1	13	50
13	1	14	50
14	1	15	50
15	1	16	50
16	1	17	50
17	1	18	50
18	1	19	50
19	1	20	50
20	1	21	50
21	1	22	50
22	1	23	50
23	1	24	50
24	1	25	50
25	1	26	50
26	1	27	50
27	1	28	50
28	1	29	50
29	1	30	50
30	1	31	50
31	1	32	50
32	1	33	50
33	1	34	50
34	1	35	50
35	1	36	50
36	1	37	50
37	1	38	50
38	1	39	50
39	1	40	50
40	1	41	50
41	1	42	50
42	1	43	50
43	1	44	50
44	1	45	50
45	1	46	50
46	1	47	50
47	1	48	50
48	1	49	50
49	1	50	50
50	1	51	50
51	1	52	50
52	1	53	50
53	1	54	50
54	1	55	50
55	1	56	50
56	1	57	50
57	1	58	50
58	1	59	50
59	1	60	50
60	1	61	50
61	1	62	50
62	1	63	50
63	1	64	50
64	1	65	50
65	1	66	50
66	1	67	50
67	1	68	50
68	1	69	50
69	1	70	50
70	1	71	50
71	1	72	50
72	1	73	50
73	1	74	50
74	1	75	50
75	1	76	50
76	1	77	50
77	1	78	50
78	1	79	50
79	1	80	50
80	1	81	50
81	1	82	50
82	1	83	50
83	1	84	50
84	1	85	50
85	1	86	50
86	1	87	50
87	1	88	50
88	1	89	50
89	1	90	50
90	1	91	50
91	1	92	50
92	1	93	50
93	1	94	50
94	1	95	50
95	1	96	50
96	1	97	50
97	1	98	50
98	1	99	50
EOF